p cnf 7230 16
486 -757 0
-510 -752 753 0
-462 -749 750 0
-486 -755 756 0
510 -754 0
462 -751 0
486 -760 0
-486 -758 759 0
-756 757 0
-753 754 0
-750 751 0
-759 760 0
758 -760 0
755 -757 0
752 -754 0
749 -751 0
